NAME : amz0442.131840_131840.tour
COMMENT : Cost = 131840_131840
COMMENT : Found by LKH-AMZ [Keld Helsgaun] Sun May 11 12:29:49 2025
COMMENT : TW viol.: 0 #: 0
TYPE : TOUR
DIMENSION : 154
TOUR_SECTION
74
81
120
91
23
105
52
134
95
29
76
4
22
68
31
47
54
49
143
3
41
11
123
129
12
127
37
88
138
100
58
122
2
65
93
85
148
73
78
131
53
20
150
75
102
8
18
43
36
32
10
30
55
133
101
5
132
15
69
117
19
115
64
139
51
7
84
62
13
99
70
136
94
6
46
110
141
39
87
135
108
147
33
104
67
9
124
103
61
92
50
146
98
57
21
153
130
26
72
126
44
35
56
106
96
111
113
112
16
140
114
142
45
151
89
83
119
77
109
25
1
42
24
125
34
149
152
144
79
59
97
154
40
38
48
116
28
128
14
137
60
118
17
63
121
80
86
27
71
66
107
145
90
82
-1
EOF
